c ind 10 120 123 13 134 136 138 140 145 147 0
c ind 149 15 182 24 242 27 38 39 41 43 0
c ind 438 45 5 53 6 69 78 9 0
p cnf 438 1881
-1 -2 11 0
-1 2 241 0
-100 -60 39 0
-100 60 101 0
-101 -64 102 0
-101 64 103 0
-102 -68 39 0
-102 68 47 0
-103 -71 39 0
-103 71 104 0
-104 -74 105 0
-104 74 106 0
-105 -77 39 0
-105 77 47 0
-106 -80 39 0
-106 80 107 0
-107 -83 39 0
-107 83 108 0
-108 -86 102 0
-108 86 109 0
-109 -88 39 0
-109 88 110 0
-11 -12 14 0
-11 12 16 0
-110 -90 105 0
-110 90 47 0
-111 -112 237 0
-111 112 241 0
-112 -21 113 0
-112 21 52 0
-113 -29 39 0
-113 29 114 0
-114 -31 115 0
-114 31 52 0
-115 -116 52 0
-115 116 183 0
-116 -117 124 0
-116 117 130 0
-117 118 121 0
-118 -119 0
-119 -120 24 0
-119 -24 120 0
-12 -13 9 0
-12 -9 13 0
-121 -122 0
-122 -123 27 0
-122 -27 123 0
-124 -125 13 0
-124 125 126 0
-125 -13 27 0
-125 -27 13 0
-126 -127 129 0
-126 127 130 0
-127 118 0
-127 128 0
-128 -13 24 0
-128 -24 13 0
-129 -130 141 0
-129 130 150 0
-130 131 0
-130 139 0
-131 132 0
-131 137 0
-132 133 0
-132 135 0
-133 -134 39 0
-133 -39 134 0
-135 -136 39 0
-135 -39 136 0
-137 -138 39 0
-137 -39 138 0
-139 -140 39 0
-139 -39 140 0
-14 -13 15 0
-14 -15 13 0
-141 -142 39 0
-141 142 130 0
-142 143 0
-142 148 0
-143 144 0
-143 146 0
-144 -13 145 0
-144 -145 13 0
-146 -13 147 0
-146 -147 13 0
-148 -13 149 0
-148 -149 13 0
-150 -151 155 0
-150 151 161 0
-151 139 0
-151 152 0
-152 137 0
-152 153 0
-153 133 0
-153 154 0
-154 -13 136 0
-154 -136 13 0
-155 -156 39 0
-155 156 130 0
-156 157 0
-156 160 0
-157 158 0
-157 160 0
-158 159 0
-158 160 0
-159 -147 39 0
-159 -39 147 0
-16 -17 19 0
-16 17 241 0
-160 -39 39 0
-161 -162 165 0
-161 162 171 0
-162 139 0
-162 163 0
-163 132 0
-163 164 0
-164 -13 138 0
-164 -138 13 0
-165 -166 39 0
-165 166 130 0
-166 143 0
-166 167 0
-167 160 0
-167 168 0
-168 160 0
-168 169 0
-169 160 0
-169 170 0
-17 18 0
-17 3 0
-170 -149 39 0
-170 -39 149 0
-171 -172 155 0
-171 172 176 0
-172 139 0
-172 173 0
-173 137 0
-173 174 0
-174 154 0
-174 175 0
-175 -13 134 0
-175 -134 13 0
-176 -177 180 0
-176 177 130 0
-177 139 0
-177 178 0
-178 137 0
-178 179 0
-179 135 0
-179 175 0
-18 -13 5 0
-18 -5 13 0
-180 -181 13 0
-180 181 130 0
-181 -13 182 0
-181 -182 13 0
-183 -184 52 0
-183 184 196 0
-184 -117 185 0
-184 117 151 0
-185 -125 39 0
-185 125 186 0
-186 -127 187 0
-186 127 151 0
-187 -130 188 0
-187 130 189 0
-188 -142 13 0
-188 142 151 0
-189 -151 190 0
-189 151 191 0
-19 -20 14 0
-19 20 92 0
-190 -156 39 0
-190 156 151 0
-191 -162 192 0
-191 162 193 0
-192 -166 39 0
-192 166 151 0
-193 -172 190 0
-193 172 194 0
-194 -177 195 0
-194 177 151 0
-195 -181 39 0
-195 181 151 0
-196 -197 52 0
-196 197 210 0
-197 -117 198 0
-197 117 162 0
-198 -125 39 0
-198 125 199 0
-199 -127 200 0
-199 127 162 0
-2 3 7 0
-20 -21 28 0
-20 21 34 0
-200 -130 201 0
-200 130 202 0
-201 -142 39 0
-201 142 162 0
-202 -151 203 0
-202 151 204 0
-203 -156 13 0
-203 156 162 0
-204 -162 205 0
-204 162 206 0
-205 -166 39 0
-205 166 162 0
-206 -172 207 0
-206 172 208 0
-207 -156 39 0
-207 156 162 0
-208 -177 209 0
-208 177 162 0
-209 -181 39 0
-209 181 162 0
-21 22 25 0
-210 -211 13 0
-210 211 223 0
-211 -117 212 0
-211 117 172 0
-212 -125 39 0
-212 125 213 0
-213 -127 214 0
-213 127 172 0
-214 -130 215 0
-214 130 216 0
-215 -142 39 0
-215 142 172 0
-216 -151 217 0
-216 151 218 0
-217 -156 39 0
-217 156 172 0
-218 -162 219 0
-218 162 220 0
-219 -166 13 0
-219 166 172 0
-22 -23 0
-220 -172 217 0
-220 172 221 0
-221 -177 222 0
-221 177 172 0
-222 -181 39 0
-222 181 172 0
-223 -224 39 0
-223 224 52 0
-224 -117 225 0
-224 117 177 0
-225 -125 39 0
-225 125 226 0
-226 -127 227 0
-226 127 177 0
-227 -130 228 0
-227 130 229 0
-228 -142 39 0
-228 142 177 0
-229 -151 230 0
-229 151 231 0
-23 -24 6 0
-23 -6 24 0
-230 -156 39 0
-230 156 177 0
-231 -162 232 0
-231 162 233 0
-232 -166 39 0
-232 166 177 0
-233 -172 234 0
-233 172 235 0
-234 -156 13 0
-234 156 177 0
-235 -177 236 0
-235 177 177 0
-236 -181 39 0
-236 181 177 0
-237 160 0
-237 238 0
-238 160 0
-238 239 0
-239 160 0
-239 240 0
-240 -15 39 0
-240 -39 15 0
-241 -15 242 0
-241 -242 15 0
-243 -244 241 0
-243 244 262 0
-244 -21 245 0
-244 21 55 0
-245 -29 39 0
-245 29 246 0
-246 -31 247 0
-246 31 55 0
-247 -34 39 0
-247 34 248 0
-248 -47 249 0
-248 47 250 0
-249 -52 13 0
-249 52 55 0
-25 -26 0
-250 -55 39 0
-250 55 251 0
-251 -60 39 0
-251 60 252 0
-252 -64 253 0
-252 64 254 0
-253 -68 39 0
-253 68 55 0
-254 -71 39 0
-254 71 255 0
-255 -74 256 0
-255 74 257 0
-256 -77 39 0
-256 77 55 0
-257 -80 39 0
-257 80 258 0
-258 -83 39 0
-258 83 259 0
-259 -86 253 0
-259 86 260 0
-26 -10 27 0
-26 -27 10 0
-260 -88 39 0
-260 88 261 0
-261 -90 256 0
-261 90 55 0
-262 -263 241 0
-262 263 281 0
-263 -21 264 0
-263 21 60 0
-264 -29 39 0
-264 29 265 0
-265 -31 266 0
-265 31 60 0
-266 -34 39 0
-266 34 267 0
-267 -47 268 0
-267 47 269 0
-268 -52 39 0
-268 52 60 0
-269 -55 13 0
-269 55 270 0
-270 -60 39 0
-270 60 271 0
-271 -64 272 0
-271 64 273 0
-272 -68 39 0
-272 68 60 0
-273 -71 39 0
-273 71 274 0
-274 -74 275 0
-274 74 276 0
-275 -77 39 0
-275 77 60 0
-276 -80 39 0
-276 80 277 0
-277 -83 39 0
-277 83 278 0
-278 -86 272 0
-278 86 279 0
-279 -88 39 0
-279 88 280 0
-28 -29 13 0
-28 29 30 0
-280 -90 275 0
-280 90 60 0
-281 -282 241 0
-281 282 300 0
-282 -21 283 0
-282 21 64 0
-283 -29 39 0
-283 29 284 0
-284 -31 285 0
-284 31 64 0
-285 -34 39 0
-285 34 286 0
-286 -47 287 0
-286 47 288 0
-287 -52 39 0
-287 52 64 0
-288 -55 39 0
-288 55 289 0
-289 -60 13 0
-289 60 290 0
-29 -10 13 0
-29 -13 10 0
-290 -64 291 0
-290 64 292 0
-291 -68 39 0
-291 68 64 0
-292 -71 39 0
-292 71 293 0
-293 -74 294 0
-293 74 295 0
-294 -77 39 0
-294 77 64 0
-295 -80 39 0
-295 80 296 0
-296 -83 39 0
-296 83 297 0
-297 -86 291 0
-297 86 298 0
-298 -88 39 0
-298 88 299 0
-299 -90 294 0
-299 90 64 0
-3 -4 0
-30 -31 33 0
-30 31 34 0
-300 -301 241 0
-300 301 320 0
-301 -21 302 0
-301 21 71 0
-302 -29 39 0
-302 29 303 0
-303 -31 304 0
-303 31 71 0
-304 -34 39 0
-304 34 305 0
-305 -47 306 0
-305 47 307 0
-306 -52 39 0
-306 52 71 0
-307 -55 39 0
-307 55 308 0
-308 -60 39 0
-308 60 309 0
-309 -64 310 0
-309 64 311 0
-31 22 0
-31 32 0
-310 -68 13 0
-310 68 71 0
-311 -71 39 0
-311 71 312 0
-312 -74 313 0
-312 74 314 0
-313 -77 39 0
-313 77 71 0
-314 -80 39 0
-314 80 315 0
-315 -83 39 0
-315 83 316 0
-316 -86 317 0
-316 86 318 0
-317 -68 39 0
-317 68 71 0
-318 -88 39 0
-318 88 319 0
-319 -90 313 0
-319 90 71 0
-32 -13 6 0
-32 -6 13 0
-320 -321 241 0
-320 321 339 0
-321 -21 322 0
-321 21 74 0
-322 -29 39 0
-322 29 323 0
-323 -31 324 0
-323 31 74 0
-324 -34 39 0
-324 34 325 0
-325 -47 326 0
-325 47 327 0
-326 -52 39 0
-326 52 74 0
-327 -55 39 0
-327 55 328 0
-328 -60 39 0
-328 60 329 0
-329 -64 330 0
-329 64 331 0
-33 -34 39 0
-33 34 46 0
-330 -68 39 0
-330 68 74 0
-331 -71 13 0
-331 71 332 0
-332 -74 333 0
-332 74 334 0
-333 -77 39 0
-333 77 74 0
-334 -80 39 0
-334 80 335 0
-335 -83 39 0
-335 83 336 0
-336 -86 330 0
-336 86 337 0
-337 -88 39 0
-337 88 338 0
-338 -90 333 0
-338 90 74 0
-339 -340 241 0
-339 340 359 0
-34 35 0
-34 44 0
-340 -21 341 0
-340 21 80 0
-341 -29 39 0
-341 29 342 0
-342 -31 343 0
-342 31 80 0
-343 -34 39 0
-343 34 344 0
-344 -47 345 0
-344 47 346 0
-345 -52 39 0
-345 52 80 0
-346 -55 39 0
-346 55 347 0
-347 -60 39 0
-347 60 348 0
-348 -64 349 0
-348 64 350 0
-349 -68 39 0
-349 68 80 0
-35 36 0
-35 42 0
-350 -71 39 0
-350 71 351 0
-351 -74 352 0
-351 74 353 0
-352 -77 13 0
-352 77 80 0
-353 -80 39 0
-353 80 354 0
-354 -83 39 0
-354 83 355 0
-355 -86 349 0
-355 86 356 0
-356 -88 39 0
-356 88 357 0
-357 -90 358 0
-357 90 80 0
-358 -77 39 0
-358 77 80 0
-359 -360 241 0
-359 360 378 0
-36 37 0
-36 40 0
-360 -21 361 0
-360 21 83 0
-361 -29 39 0
-361 29 362 0
-362 -31 363 0
-362 31 83 0
-363 -34 39 0
-363 34 364 0
-364 -47 365 0
-364 47 366 0
-365 -52 39 0
-365 52 83 0
-366 -55 39 0
-366 55 367 0
-367 -60 39 0
-367 60 368 0
-368 -64 369 0
-368 64 370 0
-369 -68 39 0
-369 68 83 0
-37 -38 39 0
-37 -39 38 0
-370 -71 39 0
-370 71 371 0
-371 -74 372 0
-371 74 373 0
-372 -77 39 0
-372 77 83 0
-373 -80 13 0
-373 80 374 0
-374 -83 39 0
-374 83 375 0
-375 -86 369 0
-375 86 376 0
-376 -88 39 0
-376 88 377 0
-377 -90 372 0
-377 90 83 0
-378 -379 241 0
-378 379 397 0
-379 -21 380 0
-379 21 86 0
-380 -29 39 0
-380 29 381 0
-381 -31 382 0
-381 31 86 0
-382 -34 39 0
-382 34 383 0
-383 -47 384 0
-383 47 385 0
-384 -52 39 0
-384 52 86 0
-385 -55 39 0
-385 55 386 0
-386 -60 39 0
-386 60 387 0
-387 -64 388 0
-387 64 389 0
-388 -68 39 0
-388 68 86 0
-389 -71 39 0
-389 71 390 0
-39 0
-390 -74 391 0
-390 74 392 0
-391 -77 39 0
-391 77 86 0
-392 -80 39 0
-392 80 393 0
-393 -83 13 0
-393 83 394 0
-394 -86 388 0
-394 86 395 0
-395 -88 39 0
-395 88 396 0
-396 -90 391 0
-396 90 86 0
-397 -398 241 0
-397 398 417 0
-398 -21 399 0
-398 21 88 0
-399 -29 39 0
-399 29 400 0
-4 -5 6 0
-4 -6 5 0
-40 -39 41 0
-40 -41 39 0
-400 -31 401 0
-400 31 88 0
-401 -34 39 0
-401 34 402 0
-402 -47 403 0
-402 47 404 0
-403 -52 39 0
-403 52 88 0
-404 -55 39 0
-404 55 405 0
-405 -60 39 0
-405 60 406 0
-406 -64 407 0
-406 64 408 0
-407 -68 39 0
-407 68 88 0
-408 -71 39 0
-408 71 409 0
-409 -74 410 0
-409 74 411 0
-410 -77 39 0
-410 77 88 0
-411 -80 39 0
-411 80 412 0
-412 -83 39 0
-412 83 413 0
-413 -86 414 0
-413 86 415 0
-414 -68 13 0
-414 68 88 0
-415 -88 39 0
-415 88 416 0
-416 -90 410 0
-416 90 88 0
-417 -418 436 0
-417 418 14 0
-418 -21 419 0
-418 21 90 0
-419 -29 39 0
-419 29 420 0
-42 -39 43 0
-42 -43 39 0
-420 -31 421 0
-420 31 90 0
-421 -34 39 0
-421 34 422 0
-422 -47 423 0
-422 47 424 0
-423 -52 39 0
-423 52 90 0
-424 -55 39 0
-424 55 425 0
-425 -60 39 0
-425 60 426 0
-426 -64 427 0
-426 64 428 0
-427 -68 39 0
-427 68 90 0
-428 -71 39 0
-428 71 429 0
-429 -74 430 0
-429 74 431 0
-430 -77 39 0
-430 77 90 0
-431 -80 39 0
-431 80 432 0
-432 -83 39 0
-432 83 433 0
-433 -86 427 0
-433 86 434 0
-434 -88 13 0
-434 88 435 0
-435 -90 430 0
-435 90 90 0
-436 -437 14 0
-436 437 241 0
-437 -13 438 0
-437 -438 13 0
-44 -39 45 0
-44 -45 39 0
-46 -47 51 0
-46 47 54 0
-47 44 0
-47 48 0
-48 42 0
-48 49 0
-49 40 0
-49 50 0
-50 -13 38 0
-50 -38 13 0
-51 -52 39 0
-51 52 34 0
-52 -13 53 0
-52 -53 13 0
-54 -55 39 0
-54 55 59 0
-55 44 0
-55 56 0
-56 42 0
-56 57 0
-57 37 0
-57 58 0
-58 -13 41 0
-58 -41 13 0
-59 -60 39 0
-59 60 63 0
-60 44 0
-60 61 0
-61 42 0
-61 62 0
-62 50 0
-62 58 0
-63 -64 67 0
-63 64 70 0
-64 44 0
-64 65 0
-65 36 0
-65 66 0
-66 -13 43 0
-66 -43 13 0
-67 -68 39 0
-67 68 34 0
-68 -13 69 0
-68 -69 13 0
-7 -8 0
-70 -71 39 0
-70 71 73 0
-71 44 0
-71 72 0
-72 49 0
-72 66 0
-73 -74 76 0
-73 74 79 0
-74 56 0
-74 75 0
-75 -13 45 0
-75 -45 13 0
-76 -77 39 0
-76 77 34 0
-77 -13 78 0
-77 -78 13 0
-79 -80 39 0
-79 80 82 0
-8 -10 9 0
-8 -9 10 0
-80 44 0
-80 81 0
-81 57 0
-81 66 0
-82 -83 39 0
-82 83 85 0
-83 44 0
-83 84 0
-84 62 0
-84 66 0
-85 -86 67 0
-85 86 87 0
-86 35 0
-86 75 0
-87 -88 39 0
-87 88 89 0
-88 48 0
-88 75 0
-89 -90 91 0
-89 90 34 0
-90 61 0
-90 75 0
-91 -77 13 0
-91 77 34 0
-92 -93 111 0
-92 93 243 0
-93 -21 94 0
-93 21 47 0
-94 -29 39 0
-94 29 95 0
-95 -31 96 0
-95 31 47 0
-96 -34 13 0
-96 34 97 0
-97 -47 98 0
-97 47 99 0
-98 -52 39 0
-98 52 47 0
-99 -55 39 0
-99 55 100 0
1 -11 -241 0
1 -2 -11 0
1 0
1 2 -241 0
100 -39 -101 0
100 -60 -39 0
100 60 -101 0
101 -102 -103 0
101 -64 -102 0
101 64 -103 0
102 -39 -47 0
102 -68 -39 0
102 68 -47 0
103 -39 -104 0
103 -71 -39 0
103 71 -104 0
104 -105 -106 0
104 -74 -105 0
104 74 -106 0
105 -39 -47 0
105 -77 -39 0
105 77 -47 0
106 -39 -107 0
106 -80 -39 0
106 80 -107 0
107 -39 -108 0
107 -83 -39 0
107 83 -108 0
108 -102 -109 0
108 -86 -102 0
108 86 -109 0
109 -39 -110 0
109 -88 -39 0
109 88 -110 0
11 -12 -14 0
11 -14 -16 0
11 12 -16 0
110 -105 -47 0
110 -90 -105 0
110 90 -47 0
111 -112 -237 0
111 -237 -241 0
111 112 -241 0
112 -113 -52 0
112 -21 -113 0
112 21 -52 0
113 -29 -39 0
113 -39 -114 0
113 29 -114 0
114 -115 -52 0
114 -31 -115 0
114 31 -52 0
115 -116 -52 0
115 -52 -183 0
115 116 -183 0
116 -117 -124 0
116 -124 -130 0
116 117 -130 0
117 -118 0
117 -121 0
118 119 0
119 -24 -120 0
119 24 120 0
12 -9 -13 0
12 9 13 0
121 122 0
122 -27 -123 0
122 27 123 0
124 -125 -13 0
124 -13 -126 0
124 125 -126 0
125 -27 -13 0
125 27 13 0
126 -127 -129 0
126 -129 -130 0
126 127 -130 0
127 -118 -128 0
128 -24 -13 0
128 24 13 0
129 -130 -141 0
129 -141 -150 0
129 130 -150 0
13 0
130 -131 -139 0
131 -132 -137 0
132 -133 -135 0
133 -134 -39 0
133 134 39 0
135 -136 -39 0
135 136 39 0
137 -138 -39 0
137 138 39 0
139 -140 -39 0
139 140 39 0
14 -15 -13 0
14 15 13 0
141 -142 -39 0
141 -39 -130 0
141 142 -130 0
142 -143 -148 0
143 -144 -146 0
144 -145 -13 0
144 145 13 0
146 -147 -13 0
146 147 13 0
148 -149 -13 0
148 149 13 0
150 -151 -155 0
150 -155 -161 0
150 151 -161 0
151 -152 -139 0
152 -153 -137 0
153 -133 -154 0
154 -136 -13 0
154 136 13 0
155 -156 -39 0
155 -39 -130 0
155 156 -130 0
156 -157 -160 0
157 -158 -160 0
158 -159 -160 0
159 -147 -39 0
159 147 39 0
16 -17 -19 0
16 -19 -241 0
16 17 -241 0
160 -39 -39 0
160 39 39 0
161 -162 -165 0
161 -165 -171 0
161 162 -171 0
162 -163 -139 0
163 -132 -164 0
164 -138 -13 0
164 138 13 0
165 -166 -39 0
165 -39 -130 0
165 166 -130 0
166 -143 -167 0
167 -168 -160 0
168 -169 -160 0
169 -170 -160 0
17 -3 -18 0
170 -149 -39 0
170 149 39 0
171 -155 -176 0
171 -172 -155 0
171 172 -176 0
172 -173 -139 0
173 -174 -137 0
174 -175 -154 0
175 -134 -13 0
175 134 13 0
176 -177 -180 0
176 -180 -130 0
176 177 -130 0
177 -178 -139 0
178 -179 -137 0
179 -175 -135 0
18 -5 -13 0
18 5 13 0
180 -13 -130 0
180 -181 -13 0
180 181 -130 0
181 -182 -13 0
181 182 13 0
183 -184 -52 0
183 -52 -196 0
183 184 -196 0
184 -117 -185 0
184 -185 -151 0
184 117 -151 0
185 -125 -39 0
185 -39 -186 0
185 125 -186 0
186 -127 -187 0
186 -187 -151 0
186 127 -151 0
187 -130 -188 0
187 -188 -189 0
187 130 -189 0
188 -13 -151 0
188 -142 -13 0
188 142 -151 0
189 -151 -190 0
189 -190 -191 0
189 151 -191 0
19 -14 -92 0
19 -20 -14 0
19 20 -92 0
190 -156 -39 0
190 -39 -151 0
190 156 -151 0
191 -162 -192 0
191 -192 -193 0
191 162 -193 0
192 -166 -39 0
192 -39 -151 0
192 166 -151 0
193 -172 -190 0
193 -190 -194 0
193 172 -194 0
194 -177 -195 0
194 -195 -151 0
194 177 -151 0
195 -181 -39 0
195 -39 -151 0
195 181 -151 0
196 -197 -52 0
196 -52 -210 0
196 197 -210 0
197 -117 -198 0
197 -198 -162 0
197 117 -162 0
198 -125 -39 0
198 -39 -199 0
198 125 -199 0
199 -127 -200 0
199 -200 -162 0
199 127 -162 0
2 -3 0
2 -7 0
20 -21 -28 0
20 -28 -34 0
20 21 -34 0
200 -130 -201 0
200 -201 -202 0
200 130 -202 0
201 -142 -39 0
201 -39 -162 0
201 142 -162 0
202 -151 -203 0
202 -203 -204 0
202 151 -204 0
203 -13 -162 0
203 -156 -13 0
203 156 -162 0
204 -162 -205 0
204 -205 -206 0
204 162 -206 0
205 -166 -39 0
205 -39 -162 0
205 166 -162 0
206 -172 -207 0
206 -207 -208 0
206 172 -208 0
207 -156 -39 0
207 -39 -162 0
207 156 -162 0
208 -177 -209 0
208 -209 -162 0
208 177 -162 0
209 -181 -39 0
209 -39 -162 0
209 181 -162 0
21 -22 0
21 -25 0
210 -13 -223 0
210 -211 -13 0
210 211 -223 0
211 -117 -212 0
211 -212 -172 0
211 117 -172 0
212 -125 -39 0
212 -39 -213 0
212 125 -213 0
213 -127 -214 0
213 -214 -172 0
213 127 -172 0
214 -130 -215 0
214 -215 -216 0
214 130 -216 0
215 -142 -39 0
215 -39 -172 0
215 142 -172 0
216 -151 -217 0
216 -217 -218 0
216 151 -218 0
217 -156 -39 0
217 -39 -172 0
217 156 -172 0
218 -162 -219 0
218 -219 -220 0
218 162 -220 0
219 -13 -172 0
219 -166 -13 0
219 166 -172 0
22 23 0
220 -172 -217 0
220 -217 -221 0
220 172 -221 0
221 -177 -222 0
221 -222 -172 0
221 177 -172 0
222 -181 -39 0
222 -39 -172 0
222 181 -172 0
223 -224 -39 0
223 -39 -52 0
223 224 -52 0
224 -117 -225 0
224 -225 -177 0
224 117 -177 0
225 -125 -39 0
225 -39 -226 0
225 125 -226 0
226 -127 -227 0
226 -227 -177 0
226 127 -177 0
227 -130 -228 0
227 -228 -229 0
227 130 -229 0
228 -142 -39 0
228 -39 -177 0
228 142 -177 0
229 -151 -230 0
229 -230 -231 0
229 151 -231 0
23 -6 -24 0
23 6 24 0
230 -156 -39 0
230 -39 -177 0
230 156 -177 0
231 -162 -232 0
231 -232 -233 0
231 162 -233 0
232 -166 -39 0
232 -39 -177 0
232 166 -177 0
233 -172 -234 0
233 -234 -235 0
233 172 -235 0
234 -13 -177 0
234 -156 -13 0
234 156 -177 0
235 -177 -236 0
235 -236 -177 0
235 177 -177 0
236 -181 -39 0
236 -39 -177 0
236 181 -177 0
237 -238 -160 0
238 -239 -160 0
239 -240 -160 0
240 -15 -39 0
240 15 39 0
241 -15 -242 0
241 15 242 0
243 -241 -262 0
243 -244 -241 0
243 244 -262 0
244 -21 -245 0
244 -245 -55 0
244 21 -55 0
245 -29 -39 0
245 -39 -246 0
245 29 -246 0
246 -247 -55 0
246 -31 -247 0
246 31 -55 0
247 -34 -39 0
247 -39 -248 0
247 34 -248 0
248 -249 -250 0
248 -47 -249 0
248 47 -250 0
249 -13 -55 0
249 -52 -13 0
249 52 -55 0
25 26 0
250 -39 -251 0
250 -55 -39 0
250 55 -251 0
251 -39 -252 0
251 -60 -39 0
251 60 -252 0
252 -253 -254 0
252 -64 -253 0
252 64 -254 0
253 -39 -55 0
253 -68 -39 0
253 68 -55 0
254 -39 -255 0
254 -71 -39 0
254 71 -255 0
255 -256 -257 0
255 -74 -256 0
255 74 -257 0
256 -39 -55 0
256 -77 -39 0
256 77 -55 0
257 -39 -258 0
257 -80 -39 0
257 80 -258 0
258 -39 -259 0
258 -83 -39 0
258 83 -259 0
259 -253 -260 0
259 -86 -253 0
259 86 -260 0
26 -10 -27 0
26 10 27 0
260 -39 -261 0
260 -88 -39 0
260 88 -261 0
261 -256 -55 0
261 -90 -256 0
261 90 -55 0
262 -241 -281 0
262 -263 -241 0
262 263 -281 0
263 -21 -264 0
263 -264 -60 0
263 21 -60 0
264 -29 -39 0
264 -39 -265 0
264 29 -265 0
265 -266 -60 0
265 -31 -266 0
265 31 -60 0
266 -34 -39 0
266 -39 -267 0
266 34 -267 0
267 -268 -269 0
267 -47 -268 0
267 47 -269 0
268 -39 -60 0
268 -52 -39 0
268 52 -60 0
269 -13 -270 0
269 -55 -13 0
269 55 -270 0
270 -39 -271 0
270 -60 -39 0
270 60 -271 0
271 -272 -273 0
271 -64 -272 0
271 64 -273 0
272 -39 -60 0
272 -68 -39 0
272 68 -60 0
273 -39 -274 0
273 -71 -39 0
273 71 -274 0
274 -275 -276 0
274 -74 -275 0
274 74 -276 0
275 -39 -60 0
275 -77 -39 0
275 77 -60 0
276 -39 -277 0
276 -80 -39 0
276 80 -277 0
277 -39 -278 0
277 -83 -39 0
277 83 -278 0
278 -272 -279 0
278 -86 -272 0
278 86 -279 0
279 -39 -280 0
279 -88 -39 0
279 88 -280 0
28 -13 -30 0
28 -29 -13 0
28 29 -30 0
280 -275 -60 0
280 -90 -275 0
280 90 -60 0
281 -241 -300 0
281 -282 -241 0
281 282 -300 0
282 -21 -283 0
282 -283 -64 0
282 21 -64 0
283 -29 -39 0
283 -39 -284 0
283 29 -284 0
284 -285 -64 0
284 -31 -285 0
284 31 -64 0
285 -34 -39 0
285 -39 -286 0
285 34 -286 0
286 -287 -288 0
286 -47 -287 0
286 47 -288 0
287 -39 -64 0
287 -52 -39 0
287 52 -64 0
288 -39 -289 0
288 -55 -39 0
288 55 -289 0
289 -13 -290 0
289 -60 -13 0
289 60 -290 0
29 -10 -13 0
29 10 13 0
290 -291 -292 0
290 -64 -291 0
290 64 -292 0
291 -39 -64 0
291 -68 -39 0
291 68 -64 0
292 -39 -293 0
292 -71 -39 0
292 71 -293 0
293 -294 -295 0
293 -74 -294 0
293 74 -295 0
294 -39 -64 0
294 -77 -39 0
294 77 -64 0
295 -39 -296 0
295 -80 -39 0
295 80 -296 0
296 -39 -297 0
296 -83 -39 0
296 83 -297 0
297 -291 -298 0
297 -86 -291 0
297 86 -298 0
298 -39 -299 0
298 -88 -39 0
298 88 -299 0
299 -294 -64 0
299 -90 -294 0
299 90 -64 0
3 4 0
30 -31 -33 0
30 -33 -34 0
30 31 -34 0
300 -241 -320 0
300 -301 -241 0
300 301 -320 0
301 -21 -302 0
301 -302 -71 0
301 21 -71 0
302 -29 -39 0
302 -39 -303 0
302 29 -303 0
303 -304 -71 0
303 -31 -304 0
303 31 -71 0
304 -34 -39 0
304 -39 -305 0
304 34 -305 0
305 -306 -307 0
305 -47 -306 0
305 47 -307 0
306 -39 -71 0
306 -52 -39 0
306 52 -71 0
307 -39 -308 0
307 -55 -39 0
307 55 -308 0
308 -39 -309 0
308 -60 -39 0
308 60 -309 0
309 -310 -311 0
309 -64 -310 0
309 64 -311 0
31 -22 -32 0
310 -13 -71 0
310 -68 -13 0
310 68 -71 0
311 -39 -312 0
311 -71 -39 0
311 71 -312 0
312 -313 -314 0
312 -74 -313 0
312 74 -314 0
313 -39 -71 0
313 -77 -39 0
313 77 -71 0
314 -39 -315 0
314 -80 -39 0
314 80 -315 0
315 -39 -316 0
315 -83 -39 0
315 83 -316 0
316 -317 -318 0
316 -86 -317 0
316 86 -318 0
317 -39 -71 0
317 -68 -39 0
317 68 -71 0
318 -39 -319 0
318 -88 -39 0
318 88 -319 0
319 -313 -71 0
319 -90 -313 0
319 90 -71 0
32 -6 -13 0
32 6 13 0
320 -241 -339 0
320 -321 -241 0
320 321 -339 0
321 -21 -322 0
321 -322 -74 0
321 21 -74 0
322 -29 -39 0
322 -39 -323 0
322 29 -323 0
323 -31 -324 0
323 -324 -74 0
323 31 -74 0
324 -34 -39 0
324 -39 -325 0
324 34 -325 0
325 -326 -327 0
325 -47 -326 0
325 47 -327 0
326 -39 -74 0
326 -52 -39 0
326 52 -74 0
327 -39 -328 0
327 -55 -39 0
327 55 -328 0
328 -39 -329 0
328 -60 -39 0
328 60 -329 0
329 -330 -331 0
329 -64 -330 0
329 64 -331 0
33 -34 -39 0
33 -39 -46 0
33 34 -46 0
330 -39 -74 0
330 -68 -39 0
330 68 -74 0
331 -13 -332 0
331 -71 -13 0
331 71 -332 0
332 -333 -334 0
332 -74 -333 0
332 74 -334 0
333 -39 -74 0
333 -77 -39 0
333 77 -74 0
334 -39 -335 0
334 -80 -39 0
334 80 -335 0
335 -39 -336 0
335 -83 -39 0
335 83 -336 0
336 -330 -337 0
336 -86 -330 0
336 86 -337 0
337 -39 -338 0
337 -88 -39 0
337 88 -338 0
338 -333 -74 0
338 -90 -333 0
338 90 -74 0
339 -241 -359 0
339 -340 -241 0
339 340 -359 0
34 -35 -44 0
340 -21 -341 0
340 -341 -80 0
340 21 -80 0
341 -29 -39 0
341 -39 -342 0
341 29 -342 0
342 -31 -343 0
342 -343 -80 0
342 31 -80 0
343 -34 -39 0
343 -39 -344 0
343 34 -344 0
344 -345 -346 0
344 -47 -345 0
344 47 -346 0
345 -39 -80 0
345 -52 -39 0
345 52 -80 0
346 -39 -347 0
346 -55 -39 0
346 55 -347 0
347 -39 -348 0
347 -60 -39 0
347 60 -348 0
348 -349 -350 0
348 -64 -349 0
348 64 -350 0
349 -39 -80 0
349 -68 -39 0
349 68 -80 0
35 -36 -42 0
350 -39 -351 0
350 -71 -39 0
350 71 -351 0
351 -352 -353 0
351 -74 -352 0
351 74 -353 0
352 -13 -80 0
352 -77 -13 0
352 77 -80 0
353 -39 -354 0
353 -80 -39 0
353 80 -354 0
354 -39 -355 0
354 -83 -39 0
354 83 -355 0
355 -349 -356 0
355 -86 -349 0
355 86 -356 0
356 -39 -357 0
356 -88 -39 0
356 88 -357 0
357 -358 -80 0
357 -90 -358 0
357 90 -80 0
358 -39 -80 0
358 -77 -39 0
358 77 -80 0
359 -241 -378 0
359 -360 -241 0
359 360 -378 0
36 -37 -40 0
360 -21 -361 0
360 -361 -83 0
360 21 -83 0
361 -29 -39 0
361 -39 -362 0
361 29 -362 0
362 -31 -363 0
362 -363 -83 0
362 31 -83 0
363 -34 -39 0
363 -39 -364 0
363 34 -364 0
364 -365 -366 0
364 -47 -365 0
364 47 -366 0
365 -39 -83 0
365 -52 -39 0
365 52 -83 0
366 -39 -367 0
366 -55 -39 0
366 55 -367 0
367 -39 -368 0
367 -60 -39 0
367 60 -368 0
368 -369 -370 0
368 -64 -369 0
368 64 -370 0
369 -39 -83 0
369 -68 -39 0
369 68 -83 0
37 -38 -39 0
37 38 39 0
370 -39 -371 0
370 -71 -39 0
370 71 -371 0
371 -372 -373 0
371 -74 -372 0
371 74 -373 0
372 -39 -83 0
372 -77 -39 0
372 77 -83 0
373 -13 -374 0
373 -80 -13 0
373 80 -374 0
374 -39 -375 0
374 -83 -39 0
374 83 -375 0
375 -369 -376 0
375 -86 -369 0
375 86 -376 0
376 -39 -377 0
376 -88 -39 0
376 88 -377 0
377 -372 -83 0
377 -90 -372 0
377 90 -83 0
378 -241 -397 0
378 -379 -241 0
378 379 -397 0
379 -21 -380 0
379 -380 -86 0
379 21 -86 0
380 -29 -39 0
380 -39 -381 0
380 29 -381 0
381 -31 -382 0
381 -382 -86 0
381 31 -86 0
382 -34 -39 0
382 -39 -383 0
382 34 -383 0
383 -384 -385 0
383 -47 -384 0
383 47 -385 0
384 -39 -86 0
384 -52 -39 0
384 52 -86 0
385 -39 -386 0
385 -55 -39 0
385 55 -386 0
386 -39 -387 0
386 -60 -39 0
386 60 -387 0
387 -388 -389 0
387 -64 -388 0
387 64 -389 0
388 -39 -86 0
388 -68 -39 0
388 68 -86 0
389 -39 -390 0
389 -71 -39 0
389 71 -390 0
390 -391 -392 0
390 -74 -391 0
390 74 -392 0
391 -39 -86 0
391 -77 -39 0
391 77 -86 0
392 -39 -393 0
392 -80 -39 0
392 80 -393 0
393 -13 -394 0
393 -83 -13 0
393 83 -394 0
394 -388 -395 0
394 -86 -388 0
394 86 -395 0
395 -39 -396 0
395 -88 -39 0
395 88 -396 0
396 -391 -86 0
396 -90 -391 0
396 90 -86 0
397 -241 -417 0
397 -398 -241 0
397 398 -417 0
398 -21 -399 0
398 -399 -88 0
398 21 -88 0
399 -29 -39 0
399 -39 -400 0
399 29 -400 0
4 -5 -6 0
4 5 6 0
40 -41 -39 0
40 41 39 0
400 -31 -401 0
400 -401 -88 0
400 31 -88 0
401 -34 -39 0
401 -39 -402 0
401 34 -402 0
402 -403 -404 0
402 -47 -403 0
402 47 -404 0
403 -39 -88 0
403 -52 -39 0
403 52 -88 0
404 -39 -405 0
404 -55 -39 0
404 55 -405 0
405 -39 -406 0
405 -60 -39 0
405 60 -406 0
406 -407 -408 0
406 -64 -407 0
406 64 -408 0
407 -39 -88 0
407 -68 -39 0
407 68 -88 0
408 -39 -409 0
408 -71 -39 0
408 71 -409 0
409 -410 -411 0
409 -74 -410 0
409 74 -411 0
410 -39 -88 0
410 -77 -39 0
410 77 -88 0
411 -39 -412 0
411 -80 -39 0
411 80 -412 0
412 -39 -413 0
412 -83 -39 0
412 83 -413 0
413 -414 -415 0
413 -86 -414 0
413 86 -415 0
414 -13 -88 0
414 -68 -13 0
414 68 -88 0
415 -39 -416 0
415 -88 -39 0
415 88 -416 0
416 -410 -88 0
416 -90 -410 0
416 90 -88 0
417 -418 -436 0
417 -436 -14 0
417 418 -14 0
418 -21 -419 0
418 -419 -90 0
418 21 -90 0
419 -29 -39 0
419 -39 -420 0
419 29 -420 0
42 -43 -39 0
42 43 39 0
420 -31 -421 0
420 -421 -90 0
420 31 -90 0
421 -34 -39 0
421 -39 -422 0
421 34 -422 0
422 -423 -424 0
422 -47 -423 0
422 47 -424 0
423 -39 -90 0
423 -52 -39 0
423 52 -90 0
424 -39 -425 0
424 -55 -39 0
424 55 -425 0
425 -39 -426 0
425 -60 -39 0
425 60 -426 0
426 -427 -428 0
426 -64 -427 0
426 64 -428 0
427 -39 -90 0
427 -68 -39 0
427 68 -90 0
428 -39 -429 0
428 -71 -39 0
428 71 -429 0
429 -430 -431 0
429 -74 -430 0
429 74 -431 0
430 -39 -90 0
430 -77 -39 0
430 77 -90 0
431 -39 -432 0
431 -80 -39 0
431 80 -432 0
432 -39 -433 0
432 -83 -39 0
432 83 -433 0
433 -427 -434 0
433 -86 -427 0
433 86 -434 0
434 -13 -435 0
434 -88 -13 0
434 88 -435 0
435 -430 -90 0
435 -90 -430 0
435 90 -90 0
436 -14 -241 0
436 -437 -14 0
436 437 -241 0
437 -438 -13 0
437 438 13 0
44 -45 -39 0
44 45 39 0
46 -47 -51 0
46 -51 -54 0
46 47 -54 0
47 -48 -44 0
48 -49 -42 0
49 -50 -40 0
50 -38 -13 0
50 38 13 0
51 -39 -34 0
51 -52 -39 0
51 52 -34 0
52 -53 -13 0
52 53 13 0
54 -39 -59 0
54 -55 -39 0
54 55 -59 0
55 -56 -44 0
56 -57 -42 0
57 -37 -58 0
58 -41 -13 0
58 41 13 0
59 -39 -63 0
59 -60 -39 0
59 60 -63 0
60 -61 -44 0
61 -62 -42 0
62 -50 -58 0
63 -64 -67 0
63 -67 -70 0
63 64 -70 0
64 -65 -44 0
65 -36 -66 0
66 -43 -13 0
66 43 13 0
67 -39 -34 0
67 -68 -39 0
67 68 -34 0
68 -69 -13 0
68 69 13 0
7 8 0
70 -39 -73 0
70 -71 -39 0
70 71 -73 0
71 -72 -44 0
72 -49 -66 0
73 -74 -76 0
73 -76 -79 0
73 74 -79 0
74 -56 -75 0
75 -45 -13 0
75 45 13 0
76 -39 -34 0
76 -77 -39 0
76 77 -34 0
77 -78 -13 0
77 78 13 0
79 -39 -82 0
79 -80 -39 0
79 80 -82 0
8 -9 -10 0
8 9 10 0
80 -81 -44 0
81 -57 -66 0
82 -39 -85 0
82 -83 -39 0
82 83 -85 0
83 -84 -44 0
84 -62 -66 0
85 -67 -87 0
85 -86 -67 0
85 86 -87 0
86 -35 -75 0
87 -39 -89 0
87 -88 -39 0
87 88 -89 0
88 -48 -75 0
89 -90 -91 0
89 -91 -34 0
89 90 -34 0
90 -61 -75 0
91 -13 -34 0
91 -77 -13 0
91 77 -34 0
92 -111 -243 0
92 -93 -111 0
92 93 -243 0
93 -21 -94 0
93 -94 -47 0
93 21 -47 0
94 -29 -39 0
94 -39 -95 0
94 29 -95 0
95 -31 -96 0
95 -96 -47 0
95 31 -47 0
96 -13 -97 0
96 -34 -13 0
96 34 -97 0
97 -47 -98 0
97 -98 -99 0
97 47 -99 0
98 -39 -47 0
98 -52 -39 0
98 52 -47 0
99 -39 -100 0
99 -55 -39 0
99 55 -100 0
